
  22   10
  10   10   10   10   10   10   10   10   10   10

   0   0   0   0   0   0   0   0   0   0   0   4 2 8 20 21 
   2  10  10  10  10  10  10  10  10  10  10   1 3 
   1  10  10  10  10  10  10  10  10  10  10   1 4 
   6  10  10  10  10  10  10  10  10  10  10   1 5 
   7  10  10  10  10  10  10  10  10  10  10   2 16 6 
   9  10  10  10  10  10  10  10  10  10  10   1 7 
   7  10  10  10  10  10  10  10  10  10  10   2 19 9 
   4  10  10  10  10  10  10  10  10  10  10   2 19 9 
   2  10  10  10  10  10  10  10  10  10  10   1 10 
   1  10  10  10  10  10  10  10  10  10  10   1 11 
   2  10  10  10  10  10  10  10  10  10  10   2 18 12 
   6  10  10  10  10  10  10  10  10  10  10   1 13 
   2  10  10  10  10  10  10  10  10  10  10   1 14 
  10  10  10  10  10  10  10  10  10  10  10   1 15 
   3  10  10  10  10  10  10  10  10  10  10   1 17 
   3  10  10  10  10  10  10  10  10  10  10   1 17 
   9  10  10  10  10  10  10  10  10  10  10   1 22
   7  10  10  10  10  10  10  10  10  10  10   1 22
   4  10  10  10  10  10  10  10  10  10  10   1 22
   4  10  10  10  10  10  10  10  10  10  10   1 22
   3  10  10  10  10  10  10  10  10  10  10   1 22
   0   0   0   0   0   0   0   0   0   0   0   0 
